; DUP2 SWAP2 POP => 
(set-option :produce-proofs true)
; 
(set-info :status unknown)
(declare-fun storage_t ((_ BitVec 256) (_ BitVec 256) Int (_ BitVec 256)) (_ BitVec 256))
(declare-fun storage_s ((_ BitVec 256) (_ BitVec 256) Int (_ BitVec 256)) (_ BitVec 256))
(declare-fun exc_halt_t (Int) Bool)
(declare-fun exc_halt_s (Int) Bool)
(declare-fun sc_t (Int) (_ BitVec 6))
(declare-fun stack_t ((_ BitVec 256) (_ BitVec 256) Int (_ BitVec 6)) (_ BitVec 256))
(declare-fun stack_s ((_ BitVec 256) (_ BitVec 256) Int (_ BitVec 6)) (_ BitVec 256))
(declare-fun sc_s (Int) (_ BitVec 6))
(declare-fun used_gas_t ((_ BitVec 256) (_ BitVec 256) Int) Int)
(declare-fun used_gas_s ((_ BitVec 256) (_ BitVec 256) Int) Int)
(assert
 (exists ((x_0 (_ BitVec 256)) (x_1 (_ BitVec 256)) )(let (($x4328 (forall ((w (_ BitVec 256)) )(let ((?x10490 (storage_t x_0 x_1 0 w)))
 (let ((?x3985 (storage_s x_0 x_1 3 w)))
 (= ?x3985 ?x10490))))
 ))
 (let (($x56 (exc_halt_t 0)))
 (let (($x8103 (exc_halt_s 3)))
 (let (($x9232 (= $x8103 $x56)))
 (let (($x403 (forall ((n (_ BitVec 6)) )(let ((?x63 (sc_t 0)))
 (let (($x11418 (bvsle ?x63 n)))
 (let ((?x2114 (stack_t x_0 x_1 0 n)))
 (let ((?x4192 (stack_s x_0 x_1 3 n)))
 (let (($x1124 (= ?x4192 ?x2114)))
 (or $x1124 $x11418)))))))
 ))
 (let ((?x63 (sc_t 0)))
 (let ((?x3851 (sc_s 3)))
 (let (($x2588 (= ?x3851 ?x63)))
 (let ((?x252 (used_gas_t x_0 x_1 0)))
 (let ((?x7349 (used_gas_s x_0 x_1 0)))
 (let (($x6460 (= ?x7349 ?x252)))
 (let (($x11812 (forall ((w (_ BitVec 256)) )(let ((?x10490 (storage_t x_0 x_1 0 w)))
 (let ((?x3829 (storage_s x_0 x_1 0 w)))
 (= ?x3829 ?x10490))))
 ))
 (let (($x57 (exc_halt_s 0)))
 (let (($x58 (= $x57 $x56)))
 (let (($x11055 (forall ((n (_ BitVec 6)) )(let ((?x63 (sc_t 0)))
 (let (($x11418 (bvsle ?x63 n)))
 (let ((?x2114 (stack_t x_0 x_1 0 n)))
 (let ((?x10276 (stack_s x_0 x_1 0 n)))
 (let (($x7103 (= ?x10276 ?x2114)))
 (or $x7103 $x11418)))))))
 ))
 (let ((?x72 (sc_s 0)))
 (let (($x73 (= ?x72 ?x63)))
 (let (($x10079 (= $x8103 (or (exc_halt_s 2) (not (bvsle (_ bv0 6) (bvadd (_ bv63 6) (sc_s 2))))))))
 (let (($x7408 (forall ((w (_ BitVec 256)) )(let ((?x2138 (storage_s x_0 x_1 2 w)))
 (let ((?x3985 (storage_s x_0 x_1 3 w)))
 (= ?x3985 ?x2138))))
 ))
 (let (($x11524 (forall ((n (_ BitVec 6)) )(let ((?x2272 (sc_s 2)))
 (let ((?x4124 (bvadd (_ bv63 6) ?x2272)))
 (let (($x8866 (bvsle ?x4124 n)))
 (or (= (stack_s x_0 x_1 3 n) (stack_s x_0 x_1 2 n)) $x8866)))))
 ))
 (let ((?x2272 (sc_s 2)))
 (let ((?x4124 (bvadd (_ bv63 6) ?x2272)))
 (let (($x6866 (= ?x3851 ?x4124)))
 (let ((?x3257 (used_gas_s x_0 x_1 3)))
 (let (($x6819 (= ?x3257 (+ 2 (used_gas_s x_0 x_1 2)))))
 (let (($x10052 (exc_halt_s 2)))
 (let (($x3645 (= $x10052 (or (exc_halt_s 1) (not (bvsle (_ bv0 6) (bvadd (_ bv61 6) (sc_s 1))))))))
 (let (($x6593 (forall ((w (_ BitVec 256)) )(let ((?x4593 (storage_s x_0 x_1 1 w)))
 (let ((?x2138 (storage_s x_0 x_1 2 w)))
 (= ?x2138 ?x4593))))
 ))
 (let (($x4074 (forall ((n (_ BitVec 6)) )(or (bvsle (bvadd (_ bv61 6) (sc_s 1)) n) (= (stack_s x_0 x_1 2 n) (stack_s x_0 x_1 1 n))))
 ))
 (let ((?x154 (sc_s 1)))
 (let (($x2606 (= ?x2272 ?x154)))
 (let ((?x9804 (used_gas_s x_0 x_1 2)))
 (let (($x9134 (= ?x9804 (+ 3 (used_gas_s x_0 x_1 1)))))
 (let (($x8015 (= (stack_s x_0 x_1 2 (bvadd (_ bv62 6) ?x2272)) (stack_s x_0 x_1 1 (bvadd (_ bv62 6) ?x154)))))
 (let ((?x3025 (bvadd (_ bv63 6) ?x154)))
 (let ((?x2625 (stack_s x_0 x_1 1 ?x3025)))
 (let (($x5311 (= (stack_s x_0 x_1 2 (bvadd (_ bv61 6) ?x2272)) ?x2625)))
 (let (($x4627 (= (stack_s x_0 x_1 2 ?x4124) (stack_s x_0 x_1 1 (bvadd (_ bv61 6) ?x154)))))
 (let (($x7922 (not (bvsle (_ bv0 6) (bvadd (_ bv62 6) ?x72)))))
 (let (($x967 (not (= ((_ extract 6 6) (bvadd (_ bv1 7) (concat (_ bv0 1) ?x72))) (_ bv0 1)))))
 (let (($x8780 (exc_halt_s 1)))
 (let (($x6642 (forall ((w (_ BitVec 256)) )(let ((?x3829 (storage_s x_0 x_1 0 w)))
 (let ((?x4593 (storage_s x_0 x_1 1 w)))
 (= ?x4593 ?x3829))))
 ))
 (let (($x3191 (forall ((n (_ BitVec 6)) )(let ((?x72 (sc_s 0)))
 (let ((?x2568 (bvadd (_ bv62 6) ?x72)))
 (let (($x9819 (bvsle ?x2568 n)))
 (let ((?x10276 (stack_s x_0 x_1 0 n)))
 (let ((?x1131 (stack_s x_0 x_1 1 n)))
 (let (($x1151 (= ?x1131 ?x10276)))
 (or $x1151 $x9819))))))))
 ))
 (let (($x10962 (= ?x154 (bvadd (_ bv1 6) ?x72))))
 (let ((?x1258 (used_gas_s x_0 x_1 1)))
 (let (($x2460 (= ?x1258 (+ 3 ?x7349))))
 (let ((?x9431 (bvadd (_ bv63 6) ?x72)))
 (let ((?x5799 (stack_s x_0 x_1 0 ?x9431)))
 (let (($x10564 (= (stack_s x_0 x_1 1 ?x9431) ?x5799)))
 (let ((?x2568 (bvadd (_ bv62 6) ?x72)))
 (let ((?x8937 (stack_s x_0 x_1 0 ?x2568)))
 (let (($x4447 (forall ((w (_ BitVec 256)) )(let ((?x3829 (storage_s x_0 x_1 0 w)))
 (= ?x3829 (_ bv0 256))))
 ))
 (let (($x668 (= ?x7349 0)))
 (let (($x10706 (not $x57)))
 (let (($x2549 (= (stack_s x_0 x_1 0 (_ bv1 6)) x_1)))
 (let (($x3187 (= (stack_s x_0 x_1 0 (_ bv0 6)) x_0)))
 (let (($x884 (= ?x72 (_ bv2 6))))
 (and $x884 $x3187 $x2549 $x10706 $x668 $x4447 (= ?x2625 ?x8937) (= (stack_s x_0 x_1 1 ?x2568) ?x8937) $x10564 $x2460 $x10962 $x3191 $x6642 (= $x8780 (or $x57 $x967 $x7922)) $x4627 $x5311 $x8015 $x9134 $x2606 $x4074 $x6593 $x3645 $x6819 $x6866 $x11524 $x7408 $x10079 $x73 $x11055 $x58 $x11812 $x6460 (not (and $x2588 $x403 $x9232 $x4328)))))))))))))))))))))))))))))))))))))))))))))))))))))))))))))
 )
(check-sat)
(get-proof)
